(set-logic ALL)
(declare-fun var0 () String)
(assert (str.in_re var0 (re.++ (re.+ (re.+ (str.to_re "0"))) (re.++ (re.* (re.union (str.to_re "11") (str.to_re "22"))) (re.++ (re.+ (re.union (str.to_re "333") (str.to_re "44"))) (re.++ (re.union (re.* (str.to_re "555")) (re.* (str.to_re "66"))) (re.++ (re.union (re.* (str.to_re "777")) (re.* (str.to_re "888"))) (re.++ (re.+ (re.union (str.to_re "9") (str.to_re "aa"))) (re.++ (re.* (re.* (str.to_re "bb"))) (re.++ (re.* (re.+ (str.to_re "cc"))) (re.++ (re.+ (re.+ (str.to_re "dd"))) (re.union (re.* (str.to_re "eee")) (re.* (str.to_re "ff"))))))))))))))
(assert (<= 301 (str.len var0)))
(check-sat)